NAME : eil51.opt.tour
COMMENT : 434.330765427679  #   Population: 70   Iteration: 5000   Elitism Ratio: 0.15   Mutation Ratio: 0.08   Crossover Ratio: 0.95
TYPE : TOUR
DIMENSION : 51
TOUR_SECTION
1
22
2
16
50
21
29
20
35
36
3
28
31
26
8
48
6
23
7
43
24
14
25
13
41
40
19
42
44
15
45
33
39
10
30
34
9
49
38
11
5
37
17
4
18
47
12
46
51
27
32
-1
EOF
